p cnf 339 673               
-2 -1 -37 0
37 -47 0
-1 38 0
-2 38 0
1 2 -38 0
-38 -3 -39 0
39 -47 0
-3 40 0
-38 40 0
3 38 -40 0
-40 -4 -41 0
41 -47 0
-4 42 0
-40 42 0
4 40 -42 0
-42 -5 -43 0
43 -47 0
-5 44 0
-42 44 0
5 42 -44 0
-44 -6 -45 0
45 -47 0
6 44 -46 0
46 -47 0
47 -103 0
-8 -7 -48 0
48 -58 0
-7 49 0
-8 49 0
7 8 -49 0
-49 -9 -50 0
50 -58 0
-9 51 0
-49 51 0
9 49 -51 0
-51 -10 -52 0
52 -58 0
-10 53 0
-51 53 0
10 51 -53 0
-53 -11 -54 0
54 -58 0
-11 55 0
-53 55 0
11 53 -55 0
-55 -12 -56 0
56 -58 0
12 55 -57 0
57 -58 0
58 -103 0
-14 -13 -59 0
59 -69 0
-13 60 0
-14 60 0
13 14 -60 0
-60 -15 -61 0
61 -69 0
-15 62 0
-60 62 0
15 60 -62 0
-62 -16 -63 0
63 -69 0
-16 64 0
-62 64 0
16 62 -64 0
-64 -17 -65 0
65 -69 0
-17 66 0
-64 66 0
17 64 -66 0
-66 -18 -67 0
67 -69 0
18 66 -68 0
68 -69 0
69 -103 0
-20 -19 -70 0
70 -80 0
-19 71 0
-20 71 0
19 20 -71 0
-71 -21 -72 0
72 -80 0
-21 73 0
-71 73 0
21 71 -73 0
-73 -22 -74 0
74 -80 0
-22 75 0
-73 75 0
22 73 -75 0
-75 -23 -76 0
76 -80 0
-23 77 0
-75 77 0
23 75 -77 0
-77 -24 -78 0
78 -80 0
24 77 -79 0
79 -80 0
80 -103 0
-26 -25 -81 0
81 -91 0
-25 82 0
-26 82 0
25 26 -82 0
-82 -27 -83 0
83 -91 0
-27 84 0
-82 84 0
27 82 -84 0
-84 -28 -85 0
85 -91 0
-28 86 0
-84 86 0
28 84 -86 0
-86 -29 -87 0
87 -91 0
-29 88 0
-86 88 0
29 86 -88 0
-88 -30 -89 0
89 -91 0
30 88 -90 0
90 -91 0
91 -103 0
-32 -31 -92 0
92 -102 0
-31 93 0
-32 93 0
31 32 -93 0
-93 -33 -94 0
94 -102 0
-33 95 0
-93 95 0
33 93 -95 0
-95 -34 -96 0
96 -102 0
-34 97 0
-95 97 0
34 95 -97 0
-97 -35 -98 0
98 -102 0
-35 99 0
-97 99 0
35 97 -99 0
-99 -36 -100 0
100 -102 0
36 99 -101 0
101 -102 0
102 -103 0
103 -142 0
-6 -104 0
-5 -104 0
-4 -104 0
-3 -104 0
-2 -104 0
6 5 4 3 2 104 0
104 -110 0
-12 -105 0
-11 -105 0
-10 -105 0
-9 -105 0
-7 -105 0
12 11 10 9 7 105 0
105 -110 0
-18 -106 0
-17 -106 0
-16 -106 0
-14 -106 0
-13 -106 0
18 17 16 14 13 106 0
106 -110 0
-24 -107 0
-23 -107 0
-21 -107 0
-20 -107 0
-19 -107 0
24 23 21 20 19 107 0
107 -110 0
-30 -108 0
-28 -108 0
-27 -108 0
-26 -108 0
-25 -108 0
30 28 27 26 25 108 0
108 -110 0
-35 -109 0
-34 -109 0
-33 -109 0
-32 -109 0
-31 -109 0
35 34 33 32 31 109 0
109 -110 0
110 -142 0
-12 -111 0
-11 -111 0
-10 -111 0
-9 -111 0
-8 -111 0
-18 -112 0
-17 -112 0
-16 -112 0
-15 -112 0
-14 -112 0
-24 -113 0
-23 -113 0
-22 -113 0
-21 -113 0
-20 -113 0
-30 -114 0
-29 -114 0
-28 -114 0
-27 -114 0
-26 -114 0
-36 -115 0
-35 -115 0
-34 -115 0
-33 -115 0
-32 -115 0
-6 -116 0
-5 -116 0
-4 -116 0
-3 -116 0
-1 -116 0
-18 -117 0
-17 -117 0
-16 -117 0
-15 -117 0
-13 -117 0
-24 -118 0
-23 -118 0
-22 -118 0
-21 -118 0
-19 -118 0
-30 -119 0
-29 -119 0
-28 -119 0
-27 -119 0
-25 -119 0
-36 -120 0
-35 -120 0
-34 -120 0
-33 -120 0
-31 -120 0
-6 -121 0
-5 -121 0
-4 -121 0
-2 -121 0
-1 -121 0
-12 -122 0
-11 -122 0
-10 -122 0
-8 -122 0
-7 -122 0
-24 -123 0
-23 -123 0
-22 -123 0
-20 -123 0
-19 -123 0
-30 -124 0
-29 -124 0
-28 -124 0
-26 -124 0
-25 -124 0
-36 -125 0
-35 -125 0
-34 -125 0
-32 -125 0
-31 -125 0
-6 -126 0
-5 -126 0
-3 -126 0
-2 -126 0
-1 -126 0
-12 -127 0
-11 -127 0
-9 -127 0
-8 -127 0
-7 -127 0
-18 -128 0
-17 -128 0
-15 -128 0
-14 -128 0
-13 -128 0
-30 -129 0
-29 -129 0
-27 -129 0
-26 -129 0
-25 -129 0
-36 -130 0
-35 -130 0
-33 -130 0
-32 -130 0
-31 -130 0
-6 -131 0
-4 -131 0
-3 -131 0
-2 -131 0
-1 -131 0
-12 -132 0
-10 -132 0
-9 -132 0
-8 -132 0
-7 -132 0
-18 -133 0
-16 -133 0
-15 -133 0
-14 -133 0
-13 -133 0
-24 -134 0
-22 -134 0
-21 -134 0
-20 -134 0
-19 -134 0
-36 -135 0
-34 -135 0
-33 -135 0
-32 -135 0
-31 -135 0
-5 -136 0
-4 -136 0
-3 -136 0
-2 -136 0
-1 -136 0
-11 -137 0
-10 -137 0
-9 -137 0
-8 -137 0
-7 -137 0
-17 -138 0
-16 -138 0
-15 -138 0
-14 -138 0
-13 -138 0
-23 -139 0
-22 -139 0
-21 -139 0
-20 -139 0
-19 -139 0
-29 -140 0
-28 -140 0
-27 -140 0
-26 -140 0
-25 -140 0
-109 -108 -107 -106 -105 -104 111 112 113 114 115 116 117 118 119 120 121 122 123 124 125 126 127 128 129 130 131 132 133 134 135 136 137 138 139 140 -141 0
141 -142 0
-1 8 -143 0
143 -181 0
-1 -8 144 0
1 8 144 0
-8 8 144 0
-2 7 -145 0
-144 145 -146 0
146 -181 0
-2 -7 147 0
2 7 147 0
-7 7 147 0
-144 -147 148 0
-3 9 -149 0
-148 149 -150 0
150 -181 0
-3 -9 151 0
3 9 151 0
-9 9 151 0
-148 -151 152 0
-4 10 -153 0
-152 153 -154 0
154 -181 0
-4 -10 155 0
4 10 155 0
-10 10 155 0
-152 -155 156 0
-5 11 -157 0
-156 157 -158 0
158 -181 0
-5 -11 159 0
5 11 159 0
-11 11 159 0
-156 -159 160 0
-6 12 -161 0
-160 161 -162 0
162 -181 0
-6 -12 163 0
6 12 163 0
-12 12 163 0
-160 -163 164 0
-13 14 -165 0
-164 165 -166 0
166 -181 0
-13 -14 167 0
13 14 167 0
-14 14 167 0
-164 -167 168 0
-19 20 -169 0
-168 169 -170 0
170 -181 0
-19 -20 171 0
19 20 171 0
-20 20 171 0
-168 -171 172 0
-25 26 -173 0
-172 173 -174 0
174 -181 0
-25 -26 175 0
25 26 175 0
-26 26 175 0
-172 -175 176 0
-31 32 -177 0
-176 177 -178 0
178 -181 0
181 -338 0
-2 3 -182 0
182 -220 0
-2 -3 183 0
2 3 183 0
-3 3 183 0
-7 13 -184 0
-183 184 -185 0
185 -220 0
-7 -13 186 0
7 13 186 0
-13 13 186 0
-183 -186 187 0
-8 15 -188 0
-187 188 -189 0
189 -220 0
-8 -15 190 0
8 15 190 0
-15 15 190 0
-187 -190 191 0
-9 14 -192 0
-191 192 -193 0
193 -220 0
-9 -14 194 0
9 14 194 0
-14 14 194 0
-191 -194 195 0
-10 16 -196 0
-195 196 -197 0
197 -220 0
-10 -16 198 0
10 16 198 0
-16 16 198 0
-195 -198 199 0
-11 17 -200 0
-199 200 -201 0
201 -220 0
-11 -17 202 0
11 17 202 0
-17 17 202 0
-199 -202 203 0
-12 18 -204 0
-203 204 -205 0
205 -220 0
-12 -18 206 0
12 18 206 0
-18 18 206 0
-203 -206 207 0
-20 21 -208 0
-207 208 -209 0
209 -220 0
-20 -21 210 0
20 21 210 0
-21 21 210 0
-207 -210 211 0
-26 27 -212 0
-211 212 -213 0
213 -220 0
-26 -27 214 0
26 27 214 0
-27 27 214 0
-211 -214 215 0
-32 33 -216 0
-215 216 -217 0
217 -220 0
220 -338 0
-3 4 -221 0
221 -259 0
-3 -4 222 0
3 4 222 0
-4 4 222 0
-9 10 -223 0
-222 223 -224 0
224 -259 0
-9 -10 225 0
9 10 225 0
-10 10 225 0
-222 -225 226 0
-13 19 -227 0
-226 227 -228 0
228 -259 0
-13 -19 229 0
13 19 229 0
-19 19 229 0
-226 -229 230 0
-14 20 -231 0
-230 231 -232 0
232 -259 0
-14 -20 233 0
14 20 233 0
-20 20 233 0
-230 -233 234 0
-15 22 -235 0
-234 235 -236 0
236 -259 0
-15 -22 237 0
15 22 237 0
-22 22 237 0
-234 -237 238 0
-16 21 -239 0
-238 239 -240 0
240 -259 0
-16 -21 241 0
16 21 241 0
-21 21 241 0
-238 -241 242 0
-17 23 -243 0
-242 243 -244 0
244 -259 0
-17 -23 245 0
17 23 245 0
-23 23 245 0
-242 -245 246 0
-18 24 -247 0
-246 247 -248 0
248 -259 0
-18 -24 249 0
18 24 249 0
-24 24 249 0
-246 -249 250 0
-27 28 -251 0
-250 251 -252 0
252 -259 0
-27 -28 253 0
27 28 253 0
-28 28 253 0
-250 -253 254 0
-33 34 -255 0
-254 255 -256 0
256 -259 0
259 -338 0
-4 5 -260 0
260 -298 0
-4 -5 261 0
4 5 261 0
-5 5 261 0
-10 11 -262 0
-261 262 -263 0
263 -298 0
-10 -11 264 0
10 11 264 0
-11 11 264 0
-261 -264 265 0
-16 17 -266 0
-265 266 -267 0
267 -298 0
-16 -17 268 0
16 17 268 0
-17 17 268 0
-265 -268 269 0
-19 25 -270 0
-269 270 -271 0
271 -298 0
-19 -25 272 0
19 25 272 0
-25 25 272 0
-269 -272 273 0
-20 26 -274 0
-273 274 -275 0
275 -298 0
-20 -26 276 0
20 26 276 0
-26 26 276 0
-273 -276 277 0
-21 27 -278 0
-277 278 -279 0
279 -298 0
-21 -27 280 0
21 27 280 0
-27 27 280 0
-277 -280 281 0
-22 29 -282 0
-281 282 -283 0
283 -298 0
-22 -29 284 0
22 29 284 0
-29 29 284 0
-281 -284 285 0
-23 28 -286 0
-285 286 -287 0
287 -298 0
-23 -28 288 0
23 28 288 0
-28 28 288 0
-285 -288 289 0
-24 30 -290 0
-289 290 -291 0
291 -298 0
-24 -30 292 0
24 30 292 0
-30 30 292 0
-289 -292 293 0
-34 35 -294 0
-293 294 -295 0
295 -298 0
298 -338 0
-5 6 -299 0
299 -337 0
-5 -6 300 0
5 6 300 0
-6 6 300 0
-11 12 -301 0
-300 301 -302 0
302 -337 0
-11 -12 303 0
11 12 303 0
-12 12 303 0
-300 -303 304 0
-17 18 -305 0
-304 305 -306 0
306 -337 0
-17 -18 307 0
17 18 307 0
-18 18 307 0
-304 -307 308 0
-23 24 -309 0
-308 309 -310 0
310 -337 0
-23 -24 311 0
23 24 311 0
-24 24 311 0
-308 -311 312 0
-25 31 -313 0
-312 313 -314 0
314 -337 0
-25 -31 315 0
25 31 315 0
-31 31 315 0
-312 -315 316 0
-26 32 -317 0
-316 317 -318 0
318 -337 0
-26 -32 319 0
26 32 319 0
-32 32 319 0
-316 -319 320 0
-27 33 -321 0
-320 321 -322 0
322 -337 0
-27 -33 323 0
27 33 323 0
-33 33 323 0
-320 -323 324 0
-28 34 -325 0
-324 325 -326 0
326 -337 0
-28 -34 327 0
28 34 327 0
-34 34 327 0
-324 -327 328 0
-29 36 -329 0
-328 329 -330 0
330 -337 0
-29 -36 331 0
29 36 331 0
-36 36 331 0
-328 -331 332 0
-30 35 -333 0
-332 333 -334 0
334 -337 0
337 -338 0
142 0
338 0
